p cnf 200 1110
-101 6 0
-101 63 0
-101 49 0
-101 -42 0
-101 -43 0
-101 32 0
-101 -86 0
-101 -96 0
-101 84 0
-101 -99 0
101 -6 -63 -49 42 43 -32 86 96 -84 99 0
-102 -82 0
-102 8 0
-102 -21 0
-102 -100 0
-102 -85 0
-102 -39 0
-102 40 0
-102 -44 0
-102 -58 0
-102 84 0
102 82 -8 21 100 85 39 -40 44 58 -84 0
-103 -72 0
-103 -3 0
-103 30 0
-103 48 0
-103 33 0
-103 -22 0
-103 -29 0
-103 98 0
-103 -96 0
-103 -75 0
103 72 3 -30 -48 -33 22 29 -98 96 75 0
-104 -74 0
-104 -22 0
-104 -58 0
-104 -54 0
-104 98 0
-104 -43 0
-104 66 0
-104 16 0
-104 9 0
-104 -31 0
104 74 22 58 54 -98 43 -66 -16 -9 31 0
-105 -41 0
-105 -98 0
-105 25 0
-105 -83 0
-105 22 0
-105 43 0
-105 72 0
-105 97 0
-105 -32 0
-105 -75 0
105 41 98 -25 83 -22 -43 -72 -97 32 75 0
-106 -23 0
-106 67 0
-106 -77 0
-106 44 0
-106 35 0
-106 -27 0
-106 46 0
-106 93 0
-106 -22 0
-106 2 0
106 23 -67 77 -44 -35 27 -46 -93 22 -2 0
-107 19 0
-107 13 0
-107 -32 0
-107 -95 0
-107 -34 0
-107 26 0
-107 67 0
-107 -3 0
-107 -93 0
-107 12 0
107 -19 -13 32 95 34 -26 -67 3 93 -12 0
-108 -17 0
-108 28 0
-108 41 0
-108 21 0
-108 -79 0
-108 -49 0
-108 -7 0
-108 -52 0
-108 29 0
-108 93 0
108 17 -28 -41 -21 79 49 7 52 -29 -93 0
-109 -59 0
-109 -71 0
-109 -86 0
-109 12 0
-109 89 0
-109 23 0
-109 66 0
-109 4 0
-109 -14 0
-109 -72 0
109 59 71 86 -12 -89 -23 -66 -4 14 72 0
-110 84 0
-110 90 0
-110 -18 0
-110 -71 0
-110 -23 0
-110 55 0
-110 17 0
-110 86 0
-110 -27 0
-110 14 0
110 -84 -90 18 71 23 -55 -17 -86 27 -14 0
101 102 103 104 105 106 107 108 109 110 0
-111 61 0
-111 52 0
-111 77 0
-111 67 0
-111 39 0
-111 50 0
-111 -95 0
-111 -12 0
-111 -58 0
-111 49 0
111 -61 -52 -77 -67 -39 -50 95 12 58 -49 0
-112 3 0
-112 -43 0
-112 -23 0
-112 56 0
-112 82 0
-112 -41 0
-112 -20 0
-112 -49 0
-112 -29 0
-112 -63 0
112 -3 43 23 -56 -82 41 20 49 29 63 0
-113 97 0
-113 68 0
-113 -82 0
-113 -35 0
-113 56 0
-113 60 0
-113 -22 0
-113 15 0
-113 87 0
-113 -67 0
113 -97 -68 82 35 -56 -60 22 -15 -87 67 0
-114 73 0
-114 94 0
-114 -83 0
-114 23 0
-114 51 0
-114 48 0
-114 8 0
-114 65 0
-114 -64 0
-114 -67 0
114 -73 -94 83 -23 -51 -48 -8 -65 64 67 0
-115 -28 0
-115 43 0
-115 33 0
-115 -66 0
-115 5 0
-115 -23 0
-115 95 0
-115 2 0
-115 74 0
-115 8 0
115 28 -43 -33 66 -5 23 -95 -2 -74 -8 0
-116 -56 0
-116 -69 0
-116 -72 0
-116 58 0
-116 33 0
-116 53 0
-116 -34 0
-116 -94 0
-116 12 0
-116 64 0
116 56 69 72 -58 -33 -53 34 94 -12 -64 0
-117 95 0
-117 92 0
-117 -81 0
-117 58 0
-117 -96 0
-117 -43 0
-117 3 0
-117 64 0
-117 9 0
-117 -49 0
117 -95 -92 81 -58 96 43 -3 -64 -9 49 0
-118 -10 0
-118 -69 0
-118 -30 0
-118 49 0
-118 76 0
-118 -20 0
-118 -8 0
-118 -3 0
-118 17 0
-118 -66 0
118 10 69 30 -49 -76 20 8 3 -17 66 0
-119 -47 0
-119 -72 0
-119 96 0
-119 -19 0
-119 -31 0
-119 64 0
-119 14 0
-119 -18 0
-119 4 0
-119 5 0
119 47 72 -96 19 31 -64 -14 18 -4 -5 0
-120 -96 0
-120 -86 0
-120 27 0
-120 71 0
-120 -10 0
-120 82 0
-120 -25 0
-120 3 0
-120 32 0
-120 -30 0
120 96 86 -27 -71 10 -82 25 -3 -32 30 0
111 112 113 114 115 116 117 118 119 120 0
-121 -69 0
-121 -17 0
-121 6 0
-121 -95 0
-121 -88 0
-121 -56 0
-121 58 0
-121 86 0
-121 -3 0
-121 -36 0
121 69 17 -6 95 88 56 -58 -86 3 36 0
-122 -31 0
-122 -63 0
-122 89 0
-122 1 0
-122 -46 0
-122 4 0
-122 56 0
-122 25 0
-122 41 0
-122 99 0
122 31 63 -89 -1 46 -4 -56 -25 -41 -99 0
-123 2 0
-123 44 0
-123 16 0
-123 -19 0
-123 98 0
-123 -66 0
-123 61 0
-123 63 0
-123 30 0
-123 -22 0
123 -2 -44 -16 19 -98 66 -61 -63 -30 22 0
-124 46 0
-124 -43 0
-124 -76 0
-124 -44 0
-124 -23 0
-124 65 0
-124 54 0
-124 -84 0
-124 -71 0
-124 26 0
124 -46 43 76 44 23 -65 -54 84 71 -26 0
-125 -32 0
-125 -22 0
-125 61 0
-125 -11 0
-125 -86 0
-125 82 0
-125 -4 0
-125 19 0
-125 53 0
-125 50 0
125 32 22 -61 11 86 -82 4 -19 -53 -50 0
-126 37 0
-126 68 0
-126 -52 0
-126 -60 0
-126 -1 0
-126 35 0
-126 57 0
-126 32 0
-126 -82 0
-126 -58 0
126 -37 -68 52 60 1 -35 -57 -32 82 58 0
-127 -27 0
-127 -75 0
-127 -37 0
-127 28 0
-127 22 0
-127 3 0
-127 74 0
-127 13 0
-127 96 0
-127 -16 0
127 27 75 37 -28 -22 -3 -74 -13 -96 16 0
-128 53 0
-128 36 0
-128 -16 0
-128 -94 0
-128 24 0
-128 -25 0
-128 31 0
-128 59 0
-128 -55 0
-128 77 0
128 -53 -36 16 94 -24 25 -31 -59 55 -77 0
-129 -9 0
-129 59 0
-129 -3 0
-129 7 0
-129 38 0
-129 96 0
-129 -76 0
-129 94 0
-129 27 0
-129 -81 0
129 9 -59 3 -7 -38 -96 76 -94 -27 81 0
-130 8 0
-130 80 0
-130 36 0
-130 -41 0
-130 21 0
-130 47 0
-130 -16 0
-130 -87 0
-130 43 0
-130 -91 0
130 -8 -80 -36 41 -21 -47 16 87 -43 91 0
121 122 123 124 125 126 127 128 129 130 0
-131 31 0
-131 40 0
-131 13 0
-131 9 0
-131 -94 0
-131 68 0
-131 -38 0
-131 12 0
-131 -74 0
-131 -33 0
131 -31 -40 -13 -9 94 -68 38 -12 74 33 0
-132 -17 0
-132 -100 0
-132 -19 0
-132 -41 0
-132 -89 0
-132 84 0
-132 65 0
-132 30 0
-132 -35 0
-132 -98 0
132 17 100 19 41 89 -84 -65 -30 35 98 0
-133 -52 0
-133 -69 0
-133 31 0
-133 20 0
-133 74 0
-133 -51 0
-133 -60 0
-133 -46 0
-133 61 0
-133 -36 0
133 52 69 -31 -20 -74 51 60 46 -61 36 0
-134 38 0
-134 25 0
-134 23 0
-134 46 0
-134 -11 0
-134 87 0
-134 -88 0
-134 -9 0
-134 44 0
-134 29 0
134 -38 -25 -23 -46 11 -87 88 9 -44 -29 0
-135 64 0
-135 86 0
-135 -63 0
-135 -39 0
-135 10 0
-135 29 0
-135 44 0
-135 52 0
-135 -53 0
-135 13 0
135 -64 -86 63 39 -10 -29 -44 -52 53 -13 0
-136 9 0
-136 -52 0
-136 -56 0
-136 -68 0
-136 48 0
-136 44 0
-136 -63 0
-136 -1 0
-136 2 0
-136 -62 0
136 -9 52 56 68 -48 -44 63 1 -2 62 0
-137 -90 0
-137 -63 0
-137 11 0
-137 24 0
-137 3 0
-137 73 0
-137 -2 0
-137 -55 0
-137 -21 0
-137 38 0
137 90 63 -11 -24 -3 -73 2 55 21 -38 0
-138 76 0
-138 93 0
-138 69 0
-138 52 0
-138 -29 0
-138 21 0
-138 -54 0
-138 -83 0
-138 -32 0
-138 -43 0
138 -76 -93 -69 -52 29 -21 54 83 32 43 0
-139 5 0
-139 -4 0
-139 42 0
-139 -46 0
-139 67 0
-139 -23 0
-139 43 0
-139 87 0
-139 16 0
-139 95 0
139 -5 4 -42 46 -67 23 -43 -87 -16 -95 0
-140 -9 0
-140 -65 0
-140 68 0
-140 39 0
-140 82 0
-140 -61 0
-140 -95 0
-140 41 0
-140 -91 0
-140 -2 0
140 9 65 -68 -39 -82 61 95 -41 91 2 0
131 132 133 134 135 136 137 138 139 140 0
-141 -31 0
-141 -63 0
-141 -77 0
-141 71 0
-141 -26 0
-141 51 0
-141 -53 0
-141 5 0
-141 64 0
-141 90 0
141 31 63 77 -71 26 -51 53 -5 -64 -90 0
-142 -72 0
-142 78 0
-142 -15 0
-142 -73 0
-142 -89 0
-142 -7 0
-142 -9 0
-142 -21 0
-142 -95 0
-142 -17 0
142 72 -78 15 73 89 7 9 21 95 17 0
-143 -32 0
-143 31 0
-143 38 0
-143 -78 0
-143 -15 0
-143 92 0
-143 45 0
-143 13 0
-143 60 0
-143 -11 0
143 32 -31 -38 78 15 -92 -45 -13 -60 11 0
-144 -27 0
-144 55 0
-144 93 0
-144 -4 0
-144 12 0
-144 78 0
-144 -73 0
-144 -9 0
-144 -52 0
-144 63 0
144 27 -55 -93 4 -12 -78 73 9 52 -63 0
-145 -49 0
-145 -20 0
-145 -76 0
-145 69 0
-145 37 0
-145 -1 0
-145 45 0
-145 89 0
-145 54 0
-145 66 0
145 49 20 76 -69 -37 1 -45 -89 -54 -66 0
-146 50 0
-146 90 0
-146 -4 0
-146 -7 0
-146 31 0
-146 99 0
-146 35 0
-146 98 0
-146 22 0
-146 -14 0
146 -50 -90 4 7 -31 -99 -35 -98 -22 14 0
-147 56 0
-147 42 0
-147 -99 0
-147 49 0
-147 62 0
-147 -41 0
-147 -85 0
-147 52 0
-147 46 0
-147 -43 0
147 -56 -42 99 -49 -62 41 85 -52 -46 43 0
-148 -75 0
-148 76 0
-148 57 0
-148 -42 0
-148 82 0
-148 79 0
-148 83 0
-148 -65 0
-148 8 0
-148 -6 0
148 75 -76 -57 42 -82 -79 -83 65 -8 6 0
-149 -56 0
-149 8 0
-149 -7 0
-149 41 0
-149 92 0
-149 -4 0
-149 61 0
-149 27 0
-149 36 0
-149 12 0
149 56 -8 7 -41 -92 4 -61 -27 -36 -12 0
-150 68 0
-150 -12 0
-150 -71 0
-150 -60 0
-150 -84 0
-150 53 0
-150 15 0
-150 54 0
-150 -39 0
-150 72 0
150 -68 12 71 60 84 -53 -15 -54 39 -72 0
141 142 143 144 145 146 147 148 149 150 0
-151 -30 0
-151 25 0
-151 -79 0
-151 -63 0
-151 36 0
-151 15 0
-151 66 0
-151 -49 0
-151 60 0
-151 -54 0
151 30 -25 79 63 -36 -15 -66 49 -60 54 0
-152 44 0
-152 5 0
-152 47 0
-152 19 0
-152 81 0
-152 85 0
-152 25 0
-152 15 0
-152 73 0
-152 82 0
152 -44 -5 -47 -19 -81 -85 -25 -15 -73 -82 0
-153 18 0
-153 -22 0
-153 78 0
-153 -91 0
-153 2 0
-153 38 0
-153 16 0
-153 -61 0
-153 67 0
-153 -55 0
153 -18 22 -78 91 -2 -38 -16 61 -67 55 0
-154 31 0
-154 -93 0
-154 63 0
-154 -98 0
-154 -81 0
-154 43 0
-154 -77 0
-154 80 0
-154 6 0
-154 -54 0
154 -31 93 -63 98 81 -43 77 -80 -6 54 0
-155 -59 0
-155 -2 0
-155 -61 0
-155 -31 0
-155 -22 0
-155 92 0
-155 -58 0
-155 -85 0
-155 -50 0
-155 -96 0
155 59 2 61 31 22 -92 58 85 50 96 0
-156 80 0
-156 -7 0
-156 -81 0
-156 -6 0
-156 74 0
-156 31 0
-156 17 0
-156 43 0
-156 27 0
-156 95 0
156 -80 7 81 6 -74 -31 -17 -43 -27 -95 0
-157 -8 0
-157 3 0
-157 67 0
-157 -64 0
-157 -93 0
-157 72 0
-157 -81 0
-157 -45 0
-157 -86 0
-157 -30 0
157 8 -3 -67 64 93 -72 81 45 86 30 0
-158 85 0
-158 -62 0
-158 -13 0
-158 -75 0
-158 -48 0
-158 66 0
-158 -77 0
-158 -6 0
-158 89 0
-158 55 0
158 -85 62 13 75 48 -66 77 6 -89 -55 0
-159 68 0
-159 -58 0
-159 -52 0
-159 7 0
-159 -88 0
-159 -98 0
-159 -11 0
-159 70 0
-159 39 0
-159 -100 0
159 -68 58 52 -7 88 98 11 -70 -39 100 0
-160 -7 0
-160 28 0
-160 5 0
-160 23 0
-160 88 0
-160 -98 0
-160 34 0
-160 2 0
-160 -30 0
-160 -13 0
160 7 -28 -5 -23 -88 98 -34 -2 30 13 0
151 152 153 154 155 156 157 158 159 160 0
-161 -16 0
-161 12 0
-161 -51 0
-161 -49 0
-161 85 0
-161 71 0
-161 -90 0
-161 5 0
-161 39 0
-161 27 0
161 16 -12 51 49 -85 -71 90 -5 -39 -27 0
-162 52 0
-162 80 0
-162 45 0
-162 -4 0
-162 15 0
-162 -55 0
-162 -98 0
-162 61 0
-162 -5 0
-162 -60 0
162 -52 -80 -45 4 -15 55 98 -61 5 60 0
-163 -75 0
-163 -43 0
-163 -67 0
-163 -53 0
-163 -82 0
-163 -20 0
-163 -34 0
-163 72 0
-163 -59 0
-163 19 0
163 75 43 67 53 82 20 34 -72 59 -19 0
-164 36 0
-164 -50 0
-164 35 0
-164 34 0
-164 -45 0
-164 -86 0
-164 -28 0
-164 -22 0
-164 19 0
-164 61 0
164 -36 50 -35 -34 45 86 28 22 -19 -61 0
-165 34 0
-165 -43 0
-165 -4 0
-165 9 0
-165 -74 0
-165 -91 0
-165 -61 0
-165 -60 0
-165 -51 0
-165 89 0
165 -34 43 4 -9 74 91 61 60 51 -89 0
-166 -2 0
-166 68 0
-166 94 0
-166 -87 0
-166 -70 0
-166 34 0
-166 71 0
-166 26 0
-166 -17 0
-166 -93 0
166 2 -68 -94 87 70 -34 -71 -26 17 93 0
-167 39 0
-167 -91 0
-167 -82 0
-167 97 0
-167 49 0
-167 17 0
-167 92 0
-167 -90 0
-167 -16 0
-167 -75 0
167 -39 91 82 -97 -49 -17 -92 90 16 75 0
-168 39 0
-168 -96 0
-168 -13 0
-168 64 0
-168 70 0
-168 10 0
-168 -54 0
-168 14 0
-168 12 0
-168 -77 0
168 -39 96 13 -64 -70 -10 54 -14 -12 77 0
-169 -83 0
-169 -14 0
-169 -44 0
-169 -27 0
-169 77 0
-169 76 0
-169 66 0
-169 -58 0
-169 51 0
-169 89 0
169 83 14 44 27 -77 -76 -66 58 -51 -89 0
-170 66 0
-170 -28 0
-170 63 0
-170 -14 0
-170 50 0
-170 -39 0
-170 -64 0
-170 32 0
-170 2 0
-170 -4 0
170 -66 28 -63 14 -50 39 64 -32 -2 4 0
161 162 163 164 165 166 167 168 169 170 0
-171 69 0
-171 -14 0
-171 -46 0
-171 9 0
-171 -6 0
-171 -59 0
-171 20 0
-171 38 0
-171 -73 0
-171 71 0
171 -69 14 46 -9 6 59 -20 -38 73 -71 0
-172 19 0
-172 6 0
-172 37 0
-172 -35 0
-172 -84 0
-172 46 0
-172 -100 0
-172 -83 0
-172 -73 0
-172 90 0
172 -19 -6 -37 35 84 -46 100 83 73 -90 0
-173 85 0
-173 -25 0
-173 27 0
-173 28 0
-173 65 0
-173 -93 0
-173 71 0
-173 30 0
-173 -81 0
-173 32 0
173 -85 25 -27 -28 -65 93 -71 -30 81 -32 0
-174 71 0
-174 -2 0
-174 48 0
-174 51 0
-174 60 0
-174 -1 0
-174 42 0
-174 43 0
-174 -7 0
-174 -70 0
174 -71 2 -48 -51 -60 1 -42 -43 7 70 0
-175 -1 0
-175 -4 0
-175 17 0
-175 77 0
-175 100 0
-175 83 0
-175 -84 0
-175 -42 0
-175 -44 0
-175 -2 0
175 1 4 -17 -77 -100 -83 84 42 44 2 0
-176 14 0
-176 -54 0
-176 -77 0
-176 37 0
-176 39 0
-176 -50 0
-176 95 0
-176 28 0
-176 -16 0
-176 36 0
176 -14 54 77 -37 -39 50 -95 -28 16 -36 0
-177 92 0
-177 69 0
-177 -32 0
-177 75 0
-177 42 0
-177 96 0
-177 71 0
-177 68 0
-177 46 0
-177 -39 0
177 -92 -69 32 -75 -42 -96 -71 -68 -46 39 0
-178 -99 0
-178 -77 0
-178 89 0
-178 -25 0
-178 69 0
-178 15 0
-178 -47 0
-178 -93 0
-178 -22 0
-178 97 0
178 99 77 -89 25 -69 -15 47 93 22 -97 0
-179 -64 0
-179 -25 0
-179 92 0
-179 -36 0
-179 13 0
-179 73 0
-179 -72 0
-179 -30 0
-179 -37 0
-179 -48 0
179 64 25 -92 36 -13 -73 72 30 37 48 0
-180 95 0
-180 85 0
-180 34 0
-180 -87 0
-180 -31 0
-180 91 0
-180 -47 0
-180 -2 0
-180 -72 0
-180 26 0
180 -95 -85 -34 87 31 -91 47 2 72 -26 0
171 172 173 174 175 176 177 178 179 180 0
-181 -11 0
-181 44 0
-181 14 0
-181 -51 0
-181 -100 0
-181 55 0
-181 -81 0
-181 52 0
-181 92 0
-181 -59 0
181 11 -44 -14 51 100 -55 81 -52 -92 59 0
-182 3 0
-182 -75 0
-182 8 0
-182 -47 0
-182 -57 0
-182 46 0
-182 -84 0
-182 -82 0
-182 22 0
-182 73 0
182 -3 75 -8 47 57 -46 84 82 -22 -73 0
-183 10 0
-183 -46 0
-183 -57 0
-183 5 0
-183 43 0
-183 -74 0
-183 33 0
-183 -80 0
-183 99 0
-183 -82 0
183 -10 46 57 -5 -43 74 -33 80 -99 82 0
-184 22 0
-184 -28 0
-184 -36 0
-184 -48 0
-184 71 0
-184 87 0
-184 -35 0
-184 43 0
-184 -83 0
-184 46 0
184 -22 28 36 48 -71 -87 35 -43 83 -46 0
-185 -68 0
-185 9 0
-185 -35 0
-185 96 0
-185 -48 0
-185 -58 0
-185 -91 0
-185 29 0
-185 -99 0
-185 -88 0
185 68 -9 35 -96 48 58 91 -29 99 88 0
-186 10 0
-186 41 0
-186 85 0
-186 -2 0
-186 32 0
-186 59 0
-186 -90 0
-186 -99 0
-186 -23 0
-186 -21 0
186 -10 -41 -85 2 -32 -59 90 99 23 21 0
-187 11 0
-187 -38 0
-187 33 0
-187 92 0
-187 -100 0
-187 21 0
-187 78 0
-187 -66 0
-187 98 0
-187 -35 0
187 -11 38 -33 -92 100 -21 -78 66 -98 35 0
-188 8 0
-188 -50 0
-188 96 0
-188 -20 0
-188 43 0
-188 -15 0
-188 -84 0
-188 54 0
-188 75 0
-188 -62 0
188 -8 50 -96 20 -43 15 84 -54 -75 62 0
-189 -21 0
-189 23 0
-189 -47 0
-189 -71 0
-189 16 0
-189 83 0
-189 97 0
-189 77 0
-189 -32 0
-189 85 0
189 21 -23 47 71 -16 -83 -97 -77 32 -85 0
-190 79 0
-190 84 0
-190 27 0
-190 86 0
-190 -69 0
-190 39 0
-190 88 0
-190 95 0
-190 57 0
-190 -52 0
190 -79 -84 -27 -86 69 -39 -88 -95 -57 52 0
181 182 183 184 185 186 187 188 189 190 0
-191 79 0
-191 8 0
-191 -31 0
-191 42 0
-191 -13 0
-191 -65 0
-191 -10 0
-191 9 0
-191 -69 0
-191 -67 0
191 -79 -8 31 -42 13 65 10 -9 69 67 0
-192 65 0
-192 -90 0
-192 -44 0
-192 -80 0
-192 -60 0
-192 74 0
-192 -34 0
-192 -96 0
-192 -64 0
-192 52 0
192 -65 90 44 80 60 -74 34 96 64 -52 0
-193 -3 0
-193 -29 0
-193 61 0
-193 71 0
-193 -76 0
-193 -30 0
-193 -13 0
-193 17 0
-193 93 0
-193 -50 0
193 3 29 -61 -71 76 30 13 -17 -93 50 0
-194 10 0
-194 -64 0
-194 -73 0
-194 76 0
-194 40 0
-194 60 0
-194 39 0
-194 89 0
-194 -1 0
-194 -81 0
194 -10 64 73 -76 -40 -60 -39 -89 1 81 0
-195 -21 0
-195 31 0
-195 -86 0
-195 -67 0
-195 5 0
-195 90 0
-195 29 0
-195 -2 0
-195 22 0
-195 46 0
195 21 -31 86 67 -5 -90 -29 2 -22 -46 0
-196 63 0
-196 34 0
-196 -17 0
-196 -18 0
-196 -45 0
-196 -29 0
-196 81 0
-196 -77 0
-196 1 0
-196 58 0
196 -63 -34 17 18 45 29 -81 77 -1 -58 0
-197 5 0
-197 -76 0
-197 12 0
-197 17 0
-197 -27 0
-197 24 0
-197 14 0
-197 -25 0
-197 48 0
-197 -79 0
197 -5 76 -12 -17 27 -24 -14 25 -48 79 0
-198 -70 0
-198 96 0
-198 -29 0
-198 -36 0
-198 -21 0
-198 -3 0
-198 45 0
-198 76 0
-198 -72 0
-198 -17 0
198 70 -96 29 36 21 3 -45 -76 72 17 0
-199 49 0
-199 29 0
-199 96 0
-199 -66 0
-199 -90 0
-199 -44 0
-199 -87 0
-199 -58 0
-199 71 0
-199 40 0
199 -49 -29 -96 66 90 44 87 58 -71 -40 0
-200 -78 0
-200 13 0
-200 85 0
-200 -23 0
-200 83 0
-200 29 0
-200 -48 0
-200 -1 0
-200 -58 0
-200 -65 0
200 78 -13 -85 23 -83 -29 48 1 58 65 0
191 192 193 194 195 196 197 198 199 200 0
